s = array1d(1..225, [0, 8, 5, 11, 0, 0, 0, 0, 0, 3, 0, 0, 9, 14, 0, 0, 14, 13, 9, 0, 0, 0, 0, 0, 6, 2, 0, 0, 0, 8, 0, 0, 0, 0, 0, 9, 0, 10, 0, 0, 8, 14, 5, 0, 1, 9, 7, 6, 0, 12, 8, 0, 0, 0, 0, 0, 4, 0, 0, 3, 2, 0, 0, 0, 8, 0, 13, 0, 4, 0, 0, 12, 0, 1, 0, 0, 0, 2, 0, 10, 7, 5, 12, 0, 8, 6, 0, 0, 0, 0, 0, 0, 0, 0, 9, 0, 4, 2, 7, 0, 0, 13, 3, 0, 0, 13, 12, 0, 0, 0, 1, 0, 0, 5, 0, 0, 0, 7, 3, 4, 0, 6, 0, 0, 1, 10, 7, 4, 0, 0, 0, 2, 0, 0, 0, 0, 0, 12, 10, 0, 0, 0, 7, 8, 5, 11, 0, 6, 0, 0, 0, 0, 0, 2, 11, 0, 12, 0, 1, 0, 0, 0, 13, 0, 9, 0, 0, 0, 3, 6, 0, 1, 14, 0, 0, 13, 11, 0, 0, 0, 4, 0, 3, 1, 0, 2, 11, 0, 0, 0, 0, 0, 0, 6, 14, 7, 0, 0, 0, 0, 4, 0, 13, 6, 14, 0, 0, 1, 2, 0, 11, 5, 10, 14, 0, 0, 0, 0, 0, 4, 9, 0, 0, 12, 0]);
n = 15;
